!--------------------------------------------------------------------------------------------------------								
!  *** S-Parameter ***								
!								
!  Copyright (C) Panasonic Industry								
!								
!  Conductive Polymer Aluminum Soild Capacitor (OS-CON)								
!								
!  Parts No. 35SVPK330M								
!--------------------------------------------------------------------------------------------------------								
!  Connection Mode : Series								
!								
!     1  o---||---o  2								
!								
!    GND o--------o GND								
!								
!  Conditions : Temperature = 20 degC   DC Bias = 0 V								
!								
!--------------------------------------------------------------------------------------------------------								
! Frequency Range : 100Hz  -  1GHz   [ 401 Steps ]								
!--------------------------------------------------------------------------------------------------------								
# Hz S RI R 50								
1.000000000000000E+02	3.037377157596500E-03	-4.659605583987090E-02	9.969626228424060E-01	4.659605583987110E-02	9.969626228424060E-01	4.659605583987110E-02	3.037377157596500E-03	-4.659605583987090E-02
1.041118107623340E+02	2.846813052452270E-03	-4.479108658222690E-02	9.971531869475480E-01	4.479108658222690E-02	9.971531869475480E-01	4.479108658222690E-02	2.846813052452270E-03	-4.479108658222690E-02
1.083926914021200E+02	2.668816260246870E-03	-4.305556020854300E-02	9.973311837397560E-01	4.305556020854320E-02	9.973311837397560E-01	4.305556020854320E-02	2.668816260246870E-03	-4.305556020854300E-02
1.128495937527760E+02	2.502504098161660E-03	-4.138678507959080E-02	9.974974959018370E-01	4.138678507959070E-02	9.974974959018370E-01	4.138678507959070E-02	2.502504098161660E-03	-4.138678507959080E-02
1.174897554939530E+02	2.347067373142290E-03	-3.978217409748170E-02	9.976529326268570E-01	3.978217409748160E-02	9.976529326268570E-01	3.978217409748160E-02	2.347067373142290E-03	-3.978217409748170E-02
1.223207119049930E+02	2.201763684546950E-03	-3.823924194554100E-02	9.977982363154540E-01	3.823924194554100E-02	9.977982363154540E-01	3.823924194554100E-02	2.201763684546950E-03	-3.823924194554100E-02
1.273503081016660E+02	2.065911180572360E-03	-3.675560213061110E-02	9.979340888194280E-01	3.675560213061110E-02	9.979340888194280E-01	3.675560213061110E-02	2.065911180572360E-03	-3.675560213061110E-02
1.325867117760560E+02	1.938882768405050E-03	-3.532896385578260E-02	9.980611172315980E-01	3.532896385578280E-02	9.980611172315980E-01	3.532896385578280E-02	1.938882768405050E-03	-3.532896385578260E-02
1.380384264602880E+02	1.820100776403890E-03	-3.395712875454490E-02	9.981798992235950E-01	3.395712875454480E-02	9.981798992235950E-01	3.395712875454480E-02	1.820100776403890E-03	-3.395712875454490E-02
1.437143053356390E+02	1.709032063897620E-03	-3.263798751964280E-02	9.982909679361030E-01	3.263798751964280E-02	9.982909679361030E-01	3.263798751964280E-02	1.709032063897620E-03	-3.263798751964280E-02
1.496235656094430E+02	1.605183570658010E-03	-3.136951646127500E-02	9.983948164293430E-01	3.136951646127500E-02	9.983948164293430E-01	3.136951646127500E-02	1.605183570658010E-03	-3.136951646127500E-02
1.557758034831600E+02	1.508098294112500E-03	-3.014977402955570E-02	9.984919017058830E-01	3.014977402955550E-02	9.984919017058830E-01	3.014977402955550E-02	1.508098294112500E-03	-3.014977402955570E-02
1.621810097358930E+02	1.417351678215180E-03	-2.897689733533850E-02	9.985826483217810E-01	2.897689733533840E-02	9.985826483217810E-01	2.897689733533840E-02	1.417351678215180E-03	-2.897689733533850E-02
1.688495859486750E+02	1.332548393912520E-03	-2.784909870162840E-02	9.986674516060870E-01	2.784909870162840E-02	9.986674516060870E-01	2.784909870162840E-02	1.332548393912520E-03	-2.784909870162840E-02
1.757923613958690E+02	1.253319487586560E-03	-2.676466227499850E-02	9.987466805124090E-01	2.676466227499840E-02	9.987466805124090E-01	2.676466227499840E-02	1.253319487586560E-03	-2.676466227499850E-02
1.830206106311060E+02	1.179319870940440E-03	-2.572194072289170E-02	9.988206801290590E-01	2.572194072289160E-02	9.988206801290590E-01	2.572194072289160E-02	1.179319870940440E-03	-2.572194072289170E-02
1.905460717963250E+02	1.110226123647540E-03	-2.471935203859950E-02	9.988897738763540E-01	2.471935203859960E-02	9.988897738763540E-01	2.471935203859960E-02	1.110226123647540E-03	-2.471935203859950E-02
1.983809656836510E+02	1.045734578789100E-03	-2.375537647136060E-02	9.989542654212140E-01	2.375537647136070E-02	9.989542654212140E-01	2.375537647136070E-02	1.045734578789100E-03	-2.375537647136060E-02
2.065380155810530E+02	9.855596606565360E-04	-2.282855359456480E-02	9.990144403393460E-01	2.282855359456490E-02	9.990144403393460E-01	2.282855359456490E-02	9.855596606565360E-04	-2.282855359456480E-02
2.150304679340260E+02	9.294324448480430E-04	-2.193747952075530E-02	9.990705675551470E-01	2.193747952075520E-02	9.990705675551470E-01	2.193747952075520E-02	9.294324448480430E-04	-2.193747952075530E-02
2.238721138568340E+02	8.770994116478120E-04	-2.108080426809600E-02	9.991229005883540E-01	2.108080426809600E-02	9.991229005883540E-01	2.108080426809600E-02	8.770994116478120E-04	-2.108080426809600E-02
2.330773115282640E+02	8.283213653208660E-04	-2.025722927938870E-02	9.991716786346740E-01	2.025722927938860E-02	9.991716786346740E-01	2.025722927938860E-02	8.283213653208660E-04	-2.025722927938870E-02
2.426610095082420E+02	7.828724940490850E-04	-1.946550509164000E-02	9.992171275059520E-01	1.946550509164000E-02	9.992171275059520E-01	1.946550509164000E-02	7.828724940490850E-04	-1.946550509164000E-02
2.526387710131900E+02	7.405395476336500E-04	-1.870442915164020E-02	9.992594604523670E-01	1.870442915164020E-02	9.992594604523670E-01	1.870442915164020E-02	7.405395476336500E-04	-1.870442915164020E-02
2.630267991895380E+02	7.011211126646600E-04	-1.797284377105110E-02	9.992988788873380E-01	1.797284377105120E-02	9.992988788873380E-01	1.797284377105120E-02	7.011211126646600E-04	-1.797284377105110E-02
2.738419634264360E+02	6.644269674878680E-04	-1.726963421305430E-02	9.993355730325100E-01	1.726963421305420E-02	9.993355730325100E-01	1.726963421305420E-02	6.644269674878680E-04	-1.726963421305430E-02
2.851018267503910E+02	6.302775018830500E-04	-1.659372690167490E-02	9.993697224981160E-01	1.659372690167490E-02	9.993697224981160E-01	1.659372690167490E-02	6.302775018830500E-04	-1.659372690167490E-02
2.968246743463240E+02	5.985031888272270E-04	-1.594408774438780E-02	9.994014968111700E-01	1.594408774438780E-02	9.994014968111700E-01	1.594408774438780E-02	5.985031888272270E-04	-1.594408774438780E-02
3.090295432513590E+02	5.689440979905570E-04	-1.531972055847860E-02	9.994310559020040E-01	1.531972055847860E-02	9.994310559020040E-01	1.531972055847860E-02	5.689440979905570E-04	-1.531972055847860E-02
3.217362532695600E+02	5.414494426637460E-04	-1.471966559179680E-02	9.994585505573390E-01	1.471966559179690E-02	9.994585505573390E-01	1.471966559179690E-02	5.414494426637460E-04	-1.471966559179680E-02
3.349654391578280E+02	5.158771536219680E-04	-1.414299812893590E-02	9.994841228463750E-01	1.414299812893590E-02	9.994841228463750E-01	1.414299812893590E-02	5.158771536219680E-04	-1.414299812893590E-02
3.487385841352190E+02	4.920934749846410E-04	-1.358882717445200E-02	9.995079065250150E-01	1.358882717445200E-02	9.995079065250150E-01	1.358882717445200E-02	4.920934749846410E-04	-1.358882717445200E-02
3.630780547701010E+02	4.699725784359840E-04	-1.305629420540700E-02	9.995300274215600E-01	1.305629420540690E-02	9.995300274215600E-01	1.305629420540690E-02	4.699725784359840E-04	-1.305629420540700E-02
3.780071373018110E+02	4.493961932433430E-04	-1.254457198629070E-02	9.995506038067570E-01	1.254457198629070E-02	9.995506038067570E-01	1.254457198629070E-02	4.493961932433430E-04	-1.254457198629070E-02
3.935500754557780E+02	4.302532503641670E-04	-1.205286344014550E-02	9.995697467496350E-01	1.205286344014550E-02	9.995697467496350E-01	1.205286344014550E-02	4.302532503641670E-04	-1.205286344014550E-02
4.097321098135420E+02	4.124395395928550E-04	-1.158040057050640E-02	9.995875604604060E-01	1.158040057050640E-02	9.995875604604060E-01	1.158040057050640E-02	4.124395395928550E-04	-1.158040057050640E-02
4.265795188015930E+02	3.958573791869340E-04	-1.112644342951840E-02	9.996041426208160E-01	1.112644342951840E-02	9.996041426208160E-01	1.112644342951840E-02	3.958573791869340E-04	-1.112644342951840E-02
4.441196613655890E+02	3.804152977522410E-04	-1.069027912830050E-02	9.996195847022520E-01	1.069027912830060E-02	9.996195847022520E-01	1.069027912830060E-02	3.804152977522410E-04	-1.069027912830050E-02
4.623810213992600E+02	3.660277283814960E-04	-1.027122088628450E-02	9.996339722716150E-01	1.027122088628450E-02	9.996339722716150E-01	1.027122088628450E-02	3.660277283814960E-04	-1.027122088628450E-02
4.813932540001450E+02	3.526147151500450E-04	-9.868607116834300E-03	9.996473852848490E-01	9.868607116834290E-03	9.996473852848490E-01	9.868607116834290E-03	3.526147151500450E-04	-9.868607116834300E-03
5.011872336272720E+02	3.401016320962270E-04	-9.481800546974890E-03	9.996598983679030E-01	9.481800546974880E-03	9.996598983679030E-01	9.481800546974880E-03	3.401016320962270E-04	-9.481800546974890E-03
5.217951042390020E+02	3.284189147687550E-04	-9.110187369505100E-03	9.996715810852350E-01	9.110187369505140E-03	9.996715810852350E-01	9.110187369505140E-03	3.284189147687550E-04	-9.110187369505100E-03
5.432503314924330E+02	3.175018043242670E-04	-8.753176426133060E-03	9.996824981956760E-01	8.753176426133070E-03	9.996824981956760E-01	8.753176426133070E-03	3.175018043242670E-04	-8.753176426133060E-03
5.655877570891540E+02	3.072901040201180E-04	-8.410198420579970E-03	9.996927098959790E-01	8.410198420579960E-03	9.996927098959790E-01	8.410198420579960E-03	3.072901040201180E-04	-8.410198420579970E-03
5.888436553555890E+02	2.977279477814270E-04	-8.080705160814990E-03	9.997022720522180E-01	8.080705160814990E-03	9.997022720522180E-01	8.080705160814990E-03	2.977279477814270E-04	-8.080705160814990E-03
6.130557921498210E+02	2.887635803410670E-04	-7.764168829746940E-03	9.997112364196560E-01	7.764168829746920E-03	9.997112364196560E-01	7.764168829746920E-03	2.887635803410670E-04	-7.764168829746940E-03
6.382634861905490E+02	2.803491482667100E-04	-7.460081283782020E-03	9.997196508517300E-01	7.460081283782000E-03	9.997196508517300E-01	7.460081283782000E-03	2.803491482667100E-04	-7.460081283782020E-03
6.645076729077800E+02	2.724405010123250E-04	-7.167953378683280E-03	9.997275594989890E-01	7.167953378683290E-03	9.997275594989890E-01	7.167953378683290E-03	2.724405010123250E-04	-7.167953378683280E-03
6.918309709189370E+02	2.649970009728320E-04	-6.887314322130900E-03	9.997350029990260E-01	6.887314322130890E-03	9.997350029990260E-01	6.887314322130890E-03	2.649970009728320E-04	-6.887314322130900E-03
7.202777512383410E+02	2.579813413912550E-04	-6.617711052295600E-03	9.997420186586130E-01	6.617711052295620E-03	9.997420186586130E-01	6.617711052295620E-03	2.579813413912550E-04	-6.617711052295600E-03
7.498942093324560E+02	2.513593708768110E-04	-6.358707641602340E-03	9.997486406291210E-01	6.358707641602320E-03	9.997486406291210E-01	6.358707641602320E-03	2.513593708768110E-04	-6.358707641602340E-03
7.807284401379070E+02	2.450999232495520E-04	-6.109884724695190E-03	9.997549000767490E-01	6.109884724695180E-03	9.997549000767490E-01	6.109884724695180E-03	2.450999232495520E-04	-6.109884724695190E-03
8.128305161641000E+02	2.391746514388910E-04	-5.870838949421830E-03	9.997608253485630E-01	5.870838949421840E-03	9.997608253485630E-01	5.870838949421840E-03	2.391746514388910E-04	-5.870838949421830E-03
8.462525688072700E+02	2.335578642350300E-04	-5.641182449456840E-03	9.997664421357690E-01	5.641182449456870E-03	9.997664421357690E-01	5.641182449456870E-03	2.335578642350300E-04	-5.641182449456840E-03
8.810488730080140E+02	2.282263648249300E-04	-5.420542336989790E-03	9.997717736351770E-01	5.420542336989800E-03	9.997717736351770E-01	5.420542336989800E-03	2.282263648249300E-04	-5.420542336989790E-03
9.172759353897800E+02	2.231592902367210E-04	-5.208560213733970E-03	9.997768407097630E-01	5.208560213733970E-03	9.997768407097630E-01	5.208560213733970E-03	2.231592902367210E-04	-5.208560213733970E-03
9.549925860214360E+02	2.183379510614830E-04	-5.004891698378390E-03	9.997816620489380E-01	5.004891698378380E-03	9.997816620489380E-01	5.004891698378380E-03	2.183379510614830E-04	-5.004891698378390E-03
9.942600739529570E+02	2.137456711096740E-04	-4.809205968529040E-03	9.997862543288890E-01	4.809205968529030E-03	9.997862543288890E-01	4.809205968529030E-03	2.137456711096740E-04	-4.809205968529040E-03
1.035142166679340E+03	2.093676269758870E-04	-4.621185315169150E-03	9.997906323730270E-01	4.621185315169160E-03	9.997906323730270E-01	4.621185315169160E-03	2.093676269758870E-04	-4.621185315169150E-03
1.077705253694320E+03	2.051906878137540E-04	-4.440524707728820E-03	9.997948093121880E-01	4.440524707728830E-03	9.997948093121880E-01	4.440524707728830E-03	2.051906878137540E-04	-4.440524707728820E-03
1.122018454301960E+03	2.012032559422050E-04	-4.266931367986760E-03	9.997987967440620E-01	4.266931367986770E-03	9.997987967440620E-01	4.266931367986770E-03	2.012032559422050E-04	-4.266931367986760E-03
1.168153729861330E+03	1.973951091955460E-04	-4.100124351235110E-03	9.998026048908010E-01	4.100124351235090E-03	9.998026048908010E-01	4.100124351235090E-03	1.973951091955460E-04	-4.100124351235110E-03
1.216186000646370E+03	1.937572461733660E-04	-3.939834133410700E-03	9.998062427538310E-01	3.939834133410720E-03	9.998062427538310E-01	3.939834133410720E-03	1.937572461733660E-04	-3.939834133410700E-03
1.266193267510940E+03	1.902817357259480E-04	-3.785802203218390E-03	9.998097182642770E-01	3.785802203218390E-03	9.998097182642770E-01	3.785802203218390E-03	1.902817357259480E-04	-3.785802203218390E-03
1.318256738556410E+03	1.869615721144470E-04	-3.637780658631910E-03	9.998130384278860E-01	3.637780658631910E-03	9.998130384278860E-01	3.637780658631910E-03	1.869615721144470E-04	-3.637780658631910E-03
1.372460961007560E+03	1.837905373056030E-04	-3.495531807526830E-03	9.998162094626920E-01	3.495531807526820E-03	9.998162094626920E-01	3.495531807526820E-03	1.837905373056030E-04	-3.495531807526830E-03
1.428893958511100E+03	1.807630717976210E-04	-3.358827772564720E-03	9.998192369282010E-01	3.358827772564720E-03	9.998192369282010E-01	3.358827772564720E-03	1.807630717976210E-04	-3.358827772564720E-03
1.487647374079500E+03	1.778741552319140E-04	-3.227450100780520E-03	9.998221258447670E-01	3.227450100780520E-03	9.998221258447670E-01	3.227450100780520E-03	1.778741552319140E-04	-3.227450100780520E-03
1.548816618912480E+03	1.751191978357850E-04	-3.101189378613210E-03	9.998248808021650E-01	3.101189378613220E-03	9.998248808021650E-01	3.101189378613220E-03	1.751191978357850E-04	-3.101189378613210E-03
1.612501027337740E+03	1.724939434784260E-04	-2.979844853343200E-03	9.998275060565230E-01	2.979844853343210E-03	9.998275060565230E-01	2.979844853343210E-03	1.724939434784260E-04	-2.979844853343200E-03
1.678804018122560E+03	1.699943848254220E-04	-2.863224062054700E-03	9.998300056151790E-01	2.863224062054710E-03	9.998300056151790E-01	2.863224062054710E-03	1.699943848254220E-04	-2.863224062054700E-03
1.747833262418220E+03	1.676166907641540E-04	-2.751142469318890E-03	9.998323833092330E-01	2.751142469318880E-03	9.998323833092330E-01	2.751142469318880E-03	1.676166907641540E-04	-2.751142469318890E-03
1.819700858609980E+03	1.653571459634530E-04	-2.643423114798750E-03	9.998346428540340E-01	2.643423114798740E-03	9.998346428540340E-01	2.643423114798740E-03	1.653571459634530E-04	-2.643423114798750E-03
1.894523514356590E+03	1.632121021424110E-04	-2.539896271912430E-03	9.998367878978560E-01	2.539896271912420E-03	9.998367878978560E-01	2.539896271912420E-03	1.632121021424110E-04	-2.539896271912430E-03
1.972422736114850E+03	1.611779403698080E-04	-2.440399118571650E-03	9.998388220596280E-01	2.440399118571650E-03	9.998388220596280E-01	2.440399118571650E-03	1.611779403698080E-04	-2.440399118571650E-03
2.053525026457150E+03	1.592510435070910E-04	-2.344775420845480E-03	9.998407489564920E-01	2.344775420845480E-03	9.998407489564920E-01	2.344775420845480E-03	1.592510435070910E-04	-2.344775420845480E-03
2.137962089502230E+03	1.574277777510050E-04	-2.252875230202740E-03	9.998425722222510E-01	2.252875230202740E-03	9.998425722222510E-01	2.252875230202740E-03	1.574277777510050E-04	-2.252875230202740E-03
2.225871044793010E+03	1.557044821284180E-04	-2.164554594772750E-03	9.998442955178700E-01	2.164554594772750E-03	9.998442955178700E-01	2.164554594772750E-03	1.557044821284180E-04	-2.164554594772750E-03
2.317394649968480E+03	1.540774647447980E-04	-2.079675284847240E-03	9.998459225352590E-01	2.079675284847250E-03	9.998459225352590E-01	2.079675284847250E-03	1.540774647447980E-04	-2.079675284847240E-03
2.412681532591640E+03	1.525430045843520E-04	-1.998104532635800E-03	9.998474569954110E-01	1.998104532635790E-03	9.998474569954110E-01	1.998104532635790E-03	1.525430045843520E-04	-1.998104532635800E-03
2.511886431509580E+03	1.510973576979520E-04	-1.919714786096880E-03	9.998489026422990E-01	1.919714786096880E-03	9.998489026422990E-01	1.919714786096880E-03	1.510973576979520E-04	-1.919714786096880E-03
2.615170448138000E+03	1.497367666864570E-04	-1.844383476496270E-03	9.998502632333100E-01	1.844383476496260E-03	9.998502632333100E-01	1.844383476496260E-03	1.497367666864570E-04	-1.844383476496270E-03
2.722701308077910E+03	1.484574724839170E-04	-1.771992799206110E-03	9.998515425275130E-01	1.771992799206100E-03	9.998515425275130E-01	1.771992799206100E-03	1.484574724839170E-04	-1.771992799206110E-03
2.834653633489670E+03	1.472557275587190E-04	-1.702429507146830E-03	9.998527442724460E-01	1.702429507146840E-03	9.998527442724460E-01	1.702429507146840E-03	1.472557275587190E-04	-1.702429507146830E-03
2.951209226666390E+03	1.461278097737370E-04	-1.635584716194090E-03	9.998538721902260E-01	1.635584716194090E-03	9.998538721902260E-01	1.635584716194090E-03	1.461278097737370E-04	-1.635584716194090E-03
3.072557365267450E+03	1.450700362720220E-04	-1.571353721821300E-03	9.998549299637290E-01	1.571353721821300E-03	9.998549299637290E-01	1.571353721821300E-03	1.450700362720220E-04	-1.571353721821300E-03
3.198895109691400E+03	1.440787768771130E-04	-1.509635826221390E-03	9.998559212231240E-01	1.509635826221390E-03	9.998559212231240E-01	1.509635826221390E-03	1.440787768771130E-04	-1.509635826221390E-03
3.330427623087460E+03	1.431504666124950E-04	-1.450334175147730E-03	9.998568495333920E-01	1.450334175147730E-03	9.998568495333920E-01	1.450334175147730E-03	1.431504666124950E-04	-1.450334175147730E-03
3.467368504525320E+03	1.422816170498750E-04	-1.393355603727310E-03	9.998577183829530E-01	1.393355603727310E-03	9.998577183829530E-01	1.393355603727310E-03	1.422816170498750E-04	-1.393355603727310E-03
3.609940135864170E+03	1.414688262890640E-04	-1.338610490528250E-03	9.998585311737080E-01	1.338610490528250E-03	9.998585311737080E-01	1.338610490528250E-03	1.414688262890640E-04	-1.338610490528250E-03
3.758374042884440E+03	1.407087874523230E-04	-1.286012619201570E-03	9.998592912125490E-01	1.286012619201570E-03	9.998592912125490E-01	1.286012619201570E-03	1.407087874523230E-04	-1.286012619201570E-03
3.912911271268530E+03	1.399982956428860E-04	-1.235479047063690E-03	9.998600017043600E-01	1.235479047063690E-03	9.998600017043600E-01	1.235479047063690E-03	1.399982956428860E-04	-1.235479047063690E-03
4.073802778041130E+03	1.393342533716130E-04	-1.186929980036210E-03	9.998606657466310E-01	1.186929980036210E-03	9.998606657466310E-01	1.186929980036210E-03	1.393342533716130E-04	-1.186929980036210E-03
4.241309839104890E+03	1.387136744980040E-04	-1.140288653411050E-03	9.998612863255010E-01	1.140288653411050E-03	9.998612863255010E-01	1.140288653411050E-03	1.387136744980040E-04	-1.140288653411050E-03
4.415704473533130E+03	1.381336867636270E-04	-1.095481217961350E-03	9.998618663132320E-01	1.095481217961340E-03	9.998618663132320E-01	1.095481217961340E-03	1.381336867636270E-04	-1.095481217961350E-03
4.597269885308720E+03	1.375915330183550E-04	-1.052436630967810E-03	9.998624084669860E-01	1.052436630967820E-03	9.998624084669860E-01	1.052436630967820E-03	1.375915330183550E-04	-1.052436630967810E-03
4.786300923226390E+03	1.370845712544220E-04	-1.011086551777990E-03	9.998629154287480E-01	1.011086551777990E-03	9.998629154287480E-01	1.011086551777990E-03	1.370845712544220E-04	-1.011086551777990E-03
4.983104559705300E+03	1.366102735712590E-04	-9.713652415592590E-04	9.998633897264330E-01	9.713652415592640E-04	9.998633897264330E-01	9.713652415592640E-04	1.366102735712590E-04	-9.713652415592590E-04
5.188000389289610E+03	1.361662241967910E-04	-9.332094669457130E-04	9.998638337758050E-01	9.332094669457150E-04	9.998638337758050E-01	9.332094669457150E-04	1.361662241967910E-04	-9.332094669457130E-04
5.401321147646350E+03	1.357501166895870E-04	-8.965584073149010E-04	9.998642498833110E-01	8.965584073149020E-04	9.998642498833110E-01	8.965584073149020E-04	1.357501166895870E-04	-8.965584073149010E-04
5.623413251903500E+03	1.353597504417980E-04	-8.613535654613520E-04	9.998646402495550E-01	8.613535654613490E-04	9.998646402495550E-01	8.613535654613490E-04	1.353597504417980E-04	-8.613535654613520E-04
5.854637363205780E+03	1.349930265963240E-04	-8.275386814610540E-04	9.998650069734050E-01	8.275386814610540E-04	9.998650069734050E-01	8.275386814610540E-04	1.349930265963240E-04	-8.275386814610540E-04
6.095368972401700E+03	1.346479434836630E-04	-7.950596495444320E-04	9.998653520565140E-01	7.950596495444300E-04	9.998653520565140E-01	7.950596495444300E-04	1.346479434836630E-04	-7.950596495444320E-04
6.345999009812870E+03	1.343225916752150E-04	-7.638644378153220E-04	9.998656774083230E-01	7.638644378153210E-04	9.998656774083230E-01	7.638644378153210E-04	1.343225916752150E-04	-7.638644378153220E-04
6.606934480075970E+03	1.340151487407450E-04	-7.339030106699300E-04	9.998659848512630E-01	7.339030106699330E-04	9.998659848512630E-01	7.339030106699330E-04	1.340151487407450E-04	-7.339030106699300E-04
6.878599123088080E+03	1.337238737889030E-04	-7.051272537840460E-04	9.998662761262120E-01	7.051272537840470E-04	9.998662761262120E-01	7.051272537840470E-04	1.337238737889030E-04	-7.051272537840460E-04
7.161434102129030E+03	1.334471018611920E-04	-6.774909015478570E-04	9.998665528981420E-01	6.774909015478580E-04	9.998665528981420E-01	6.774909015478580E-04	1.334471018611920E-04	-6.774909015478570E-04
7.455898720277820E+03	1.331832382419700E-04	-6.509494668373860E-04	9.998668167617610E-01	6.509494668373880E-04	9.998668167617610E-01	6.509494668373880E-04	1.331832382419700E-04	-6.509494668373860E-04
7.762471166286920E+03	1.329307527401030E-04	-6.254601730190800E-04	9.998670692472600E-01	6.254601730190800E-04	9.998670692472600E-01	6.254601730190800E-04	1.329307527401030E-04	-6.254601730190800E-04
8.081649291125380E+03	1.326881739917780E-04	-6.009818880900920E-04	9.998673118260080E-01	6.009818880900920E-04	9.998673118260080E-01	6.009818880900920E-04	1.326881739917780E-04	-6.009818880900920E-04
8.413951416451960E+03	1.324540838289750E-04	-5.774750608618640E-04	9.998675459161670E-01	5.774750608618620E-04	9.998675459161670E-01	5.774750608618620E-04	1.324540838289750E-04	-5.774750608618640E-04
8.759917176331180E+03	1.322271117540270E-04	-5.549016590986610E-04	9.998677728882480E-01	5.549016590986630E-04	9.998677728882480E-01	5.549016590986630E-04	1.322271117540270E-04	-5.549016590986610E-04
9.120108393559110E+03	1.320059295577330E-04	-5.332251095257880E-04	9.998679940704400E-01	5.332251095257870E-04	9.998679940704400E-01	5.332251095257870E-04	1.320059295577330E-04	-5.332251095257880E-04
9.495109992021990E+03	1.317892461166410E-04	-5.124102396254260E-04	9.998682107538830E-01	5.124102396254260E-04	9.998682107538830E-01	5.124102396254260E-04	1.317892461166410E-04	-5.124102396254260E-04
9.885530946569390E+03	1.315758024041400E-04	-4.924232211402490E-04	9.998684241975910E-01	4.924232211402460E-04	9.998684241975910E-01	4.924232211402460E-04	1.315758024041400E-04	-4.924232211402490E-04
1.029200527194430E+04	1.313643667502270E-04	-4.732315152078180E-04	9.998686356332480E-01	4.732315152078170E-04	9.998686356332480E-01	4.732315152078170E-04	1.313643667502270E-04	-4.732315152078180E-04
1.071519305237610E+04	1.311537303858390E-04	-4.548038190512920E-04	9.998688462696190E-01	4.548038190512940E-04	9.998688462696190E-01	4.548038190512940E-04	1.311537303858390E-04	-4.548038190512920E-04
1.115578151350850E+04	1.309427033096640E-04	-4.371100141549920E-04	9.998690572966930E-01	4.371100141549940E-04	9.998690572966930E-01	4.371100141549940E-04	1.309427033096640E-04	-4.371100141549920E-04
1.161448613840340E+04	1.307301105181230E-04	-4.201211158570140E-04	9.998692698894850E-01	4.201211158570150E-04	9.998692698894850E-01	4.201211158570150E-04	1.307301105181230E-04	-4.201211158570140E-04
1.209205182943210E+04	1.305147886427540E-04	-4.038092242951540E-04	9.998694852113580E-01	4.038092242951540E-04	9.998694852113580E-01	4.038092242951540E-04	1.305147886427540E-04	-4.038092242951540E-04
1.258925411794170E+04	1.302955830433970E-04	-3.881474766477730E-04	9.998697044169550E-01	3.881474766477720E-04	9.998697044169550E-01	3.881474766477720E-04	1.302955830433970E-04	-3.881474766477730E-04
1.310690042366080E+04	1.300713454100940E-04	-3.731100006172910E-04	9.998699286545860E-01	3.731100006172900E-04	9.998699286545860E-01	3.731100006172900E-04	1.300713454100940E-04	-3.731100006172910E-04
1.364583136588930E+04	1.298409319315220E-04	-3.586718691117330E-04	9.998701590680700E-01	3.586718691117340E-04	9.998701590680700E-01	3.586718691117340E-04	1.298409319315220E-04	-3.586718691117330E-04
1.420692212860180E+04	1.296032020926270E-04	-3.448090560886750E-04	9.998703967979070E-01	3.448090560886750E-04	9.998703967979070E-01	3.448090560886750E-04	1.296032020926270E-04	-3.448090560886750E-04
1.479108388168210E+04	1.293570181687310E-04	-3.314983935367250E-04	9.998706429818340E-01	3.314983935367260E-04	9.998706429818340E-01	3.314983935367260E-04	1.293570181687310E-04	-3.314983935367250E-04
1.539926526059490E+04	1.291012454873800E-04	-3.187175295821120E-04	9.998708987545170E-01	3.187175295821140E-04	9.998708987545170E-01	3.187175295821140E-04	1.291012454873800E-04	-3.187175295821120E-04
1.603245390690040E+04	1.288347535322070E-04	-3.064448877224560E-04	9.998711652464670E-01	3.064448877224560E-04	9.998711652464670E-01	3.064448877224560E-04	1.288347535322070E-04	-3.064448877224560E-04
1.669167807211060E+04	1.285564179645760E-04	-2.946596272061590E-04	9.998714435820350E-01	2.946596272061590E-04	9.998714435820350E-01	2.946596272061590E-04	1.285564179645760E-04	-2.946596272061590E-04
1.737800828749380E+04	1.282651236381820E-04	-2.833416045941370E-04	9.998717348763640E-01	2.833416045941370E-04	9.998717348763640E-01	2.833416045941370E-04	1.282651236381820E-04	-2.833416045941370E-04
1.809255910253820E+04	1.279597686786990E-04	-2.724713365608720E-04	9.998720402313170E-01	2.724713365608710E-04	9.998720402313170E-01	2.724713365608710E-04	1.279597686786990E-04	-2.724713365608720E-04
1.883649089489800E+04	1.276392696939770E-04	-2.620299640133830E-04	9.998723607303080E-01	2.620299640133830E-04	9.998723607303080E-01	2.620299640133830E-04	1.276392696939770E-04	-2.620299640133830E-04
1.961101175476050E+04	1.273025681698870E-04	-2.519992176294630E-04	9.998726974318270E-01	2.519992176294620E-04	9.998726974318270E-01	2.519992176294620E-04	1.273025681698870E-04	-2.519992176294630E-04
2.041737944669530E+04	1.269486380918100E-04	-2.423613849400940E-04	9.998730513619090E-01	2.423613849400940E-04	9.998730513619090E-01	2.423613849400940E-04	1.269486380918100E-04	-2.423613849400940E-04
2.125690345217110E+04	1.265764948112400E-04	-2.330992791036570E-04	9.998734235051880E-01	2.330992791036570E-04	9.998734235051880E-01	2.330992791036570E-04	1.265764948112400E-04	-2.330992791036570E-04
2.213094709605640E+04	1.261852051508150E-04	-2.241962095414750E-04	9.998738147948450E-01	2.241962095414740E-04	9.998738147948450E-01	2.241962095414740E-04	1.261852051508150E-04	-2.241962095414750E-04
2.304092976055850E+04	1.257738987085150E-04	-2.156359546230000E-04	9.998742261012910E-01	2.156359546230000E-04	9.998742261012910E-01	2.156359546230000E-04	1.257738987085150E-04	-2.156359546230000E-04
2.398832919019490E+04	1.253417802829390E-04	-2.074027366037840E-04	9.998746582197190E-01	2.074027366037850E-04	9.998746582197190E-01	2.074027366037850E-04	1.253417802829390E-04	-2.074027366037840E-04
2.497468389154150E+04	1.248881432966100E-04	-1.994811990281470E-04	9.998751118567070E-01	1.994811990281470E-04	9.998751118567070E-01	1.994811990281470E-04	1.248881432966100E-04	-1.994811990281470E-04
2.600159563165270E+04	1.244123840437530E-04	-1.918563868094040E-04	9.998755876159540E-01	1.918563868094030E-04	9.998755876159540E-01	1.918563868094030E-04	1.244123840437530E-04	-1.918563868094040E-04
2.707073203921360E+04	1.239140165340630E-04	-1.845137291916950E-04	9.998760859834620E-01	1.845137291916940E-04	9.998760859834620E-01	1.845137291916940E-04	1.239140165340630E-04	-1.845137291916950E-04
2.818382931264460E+04	1.233926876464830E-04	-1.774390257770390E-04	9.998766073123500E-01	1.774390257770390E-04	9.998766073123500E-01	1.774390257770390E-04	1.233926876464830E-04	-1.774390257770390E-04
2.934269503955970E+04	1.228481922490550E-04	-1.706184357675860E-04	9.998771518077510E-01	1.706184357675860E-04	9.998771518077510E-01	1.706184357675860E-04	1.228481922490550E-04	-1.706184357675860E-04
3.054921113215520E+04	1.222804878856370E-04	-1.640384705249000E-04	9.998777195121140E-01	1.640384705249000E-04	9.998777195121140E-01	1.640384705249000E-04	1.222804878856370E-04	-1.640384705249000E-04
3.180533688329530E+04	1.216897085810930E-04	-1.576859894851070E-04	9.998783102914170E-01	1.576859894851060E-04	9.998783102914170E-01	1.576859894851060E-04	1.216897085810930E-04	-1.576859894851070E-04
3.311311214825920E+04	1.210761772773250E-04	-1.515481993908920E-04	9.998789238227250E-01	1.515481993908920E-04	9.998789238227250E-01	1.515481993908920E-04	1.210761772773250E-04	-1.515481993908920E-04
3.447466065731500E+04	1.204404163876690E-04	-1.456126567103510E-04	9.998795595836130E-01	1.456126567103510E-04	9.998795595836130E-01	1.456126567103510E-04	1.204404163876690E-04	-1.456126567103510E-04
3.589219346450060E+04	1.197831559503860E-04	-1.398672730107180E-04	9.998802168440480E-01	1.398672730107180E-04	9.998802168440480E-01	1.398672730107180E-04	1.197831559503860E-04	-1.398672730107180E-04
3.736801253821160E+04	1.191053388773690E-04	-1.343003229460990E-04	9.998808946611190E-01	1.343003229460990E-04	9.998808946611190E-01	1.343003229460990E-04	1.191053388773690E-04	-1.343003229460990E-04
3.890451449942810E+04	1.184081228343560E-04	-1.289004544074210E-04	9.998815918771630E-01	1.289004544074200E-04	9.998815918771630E-01	1.289004544074200E-04	1.184081228343560E-04	-1.289004544074210E-04
4.050419451364940E+04	1.176928783557500E-04	-1.236567002758620E-04	9.998823071216450E-01	1.236567002758620E-04	9.998823071216450E-01	1.236567002758620E-04	1.176928783557500E-04	-1.236567002758620E-04
4.216965034285830E+04	1.169611828905660E-04	-1.185584911250660E-04	9.998830388171100E-01	1.185584911250660E-04	9.998830388171100E-01	1.185584911250660E-04	1.169611828905660E-04	-1.185584911250660E-04
4.390358656409450E+04	1.162148105944220E-04	-1.135956681392350E-04	9.998837851894070E-01	1.135956681392350E-04	9.998837851894070E-01	1.135956681392350E-04	1.162148105944220E-04	-1.135956681392350E-04
4.570881896148760E+04	1.154557178219320E-04	-1.087584954609590E-04	9.998845442821740E-01	1.087584954609590E-04	9.998845442821740E-01	1.087584954609590E-04	1.154557178219320E-04	-1.087584954609590E-04
4.758827909888170E+04	1.146860244285900E-04	-1.040376711600200E-04	9.998853139755710E-01	1.040376711600200E-04	9.998853139755710E-01	1.040376711600200E-04	1.146860244285900E-04	-1.040376711600200E-04
4.954501908047910E+04	1.139079911536770E-04	-9.942433602693950E-05	9.998860920088510E-01	9.942433602694000E-05	9.998860920088510E-01	9.942433602694000E-05	1.139079911536770E-04	-9.942433602693950E-05
5.158221650723060E+04	1.131239935168580E-04	-9.491007944516620E-05	9.998868760064850E-01	9.491007944516640E-05	9.998868760064850E-01	9.491007944516640E-05	1.131239935168580E-04	-9.491007944516620E-05
5.370317963702530E+04	1.123364928114460E-04	-9.048694168307060E-05	9.998876635071890E-01	9.048694168307060E-05	9.998876635071890E-01	9.048694168307060E-05	1.123364928114460E-04	-9.048694168307060E-05
5.591135275705600E+04	1.115480049071800E-04	-8.614741206874260E-05	9.998884519950950E-01	8.614741206874280E-05	9.998884519950950E-01	8.614741206874280E-05	1.115480049071800E-04	-8.614741206874260E-05
5.821032177708720E+04	1.107610676761650E-04	-8.188442266122860E-05	9.998892389323260E-01	8.188442266122870E-05	9.998892389323260E-01	8.188442266122870E-05	1.107610676761650E-04	-8.188442266122860E-05
6.060382005270670E+04	1.099782079205000E-04	-7.769133720343820E-05	9.998900217920810E-01	7.769133720343830E-05	9.998900217920810E-01	7.769133720343830E-05	1.099782079205000E-04	-7.769133720343820E-05
6.309573444801940E+04	1.092019087044120E-04	-7.356193532494710E-05	9.998907980912980E-01	7.356193532494730E-05	9.998907980912980E-01	7.356193532494730E-05	1.092019087044120E-04	-7.356193532494710E-05
6.569011164762670E+04	1.084345779758310E-04	-6.949039214668980E-05	9.998915654220270E-01	6.949039214669000E-05	9.998915654220270E-01	6.949039214669000E-05	1.084345779758310E-04	-6.949039214668980E-05
6.839116472814300E+04	1.076785193034940E-04	-6.547125361337200E-05	9.998923214806920E-01	6.547125361337180E-05	9.998923214806920E-01	6.547125361337180E-05	1.076785193034940E-04	-6.547125361337200E-05
7.120327999992040E+04	1.069359054599870E-04	-6.149940803361980E-05	9.998930640945400E-01	6.149940803361980E-05	9.998930640945400E-01	6.149940803361980E-05	1.069359054599870E-04	-6.149940803361980E-05
7.413102413009180E+04	1.062087554552860E-04	-5.757005443415150E-05	9.998937912445410E-01	5.757005443415120E-05	9.998937912445410E-01	5.757005443415120E-05	1.062087554552860E-04	-5.757005443415150E-05
7.717915155850130E+04	1.054989154777530E-04	-5.367866842672830E-05	9.998945010845240E-01	5.367866842672830E-05	9.998945010845240E-01	5.367866842672830E-05	1.054989154777530E-04	-5.367866842672830E-05
8.035261221856190E+04	1.048080440396000E-04	-4.982096634201320E-05	9.998951919559580E-01	4.982096634201310E-05	9.998951919559580E-01	4.982096634201310E-05	1.048080440396000E-04	-4.982096634201320E-05
8.365655957558110E+04	1.041376014612890E-04	-4.599286840216420E-05	9.998958623985340E-01	4.599286840216400E-05	9.998958623985340E-01	4.599286840216400E-05	1.041376014612890E-04	-4.599286840216420E-05
8.709635899560820E+04	1.034888436731930E-04	-4.219046168599020E-05	9.998965111563310E-01	4.219046168599040E-05	9.998965111563310E-01	4.219046168599040E-05	1.034888436731930E-04	-4.219046168599020E-05
9.067759645839070E+04	1.028628201710410E-04	-3.840996359097350E-05	9.998971371798280E-01	3.840996359097340E-05	9.998971371798280E-01	3.840996359097340E-05	1.028628201710410E-04	-3.840996359097350E-05
9.440608762859240E+04	1.022603758401400E-04	-3.464768642117530E-05	9.998977396241630E-01	3.464768642117540E-05	9.998977396241630E-01	3.464768642117540E-05	1.022603758401400E-04	-3.464768642117530E-05
9.828788730000330E+04	1.016821562664090E-04	-3.090000363567160E-05	9.998983178437310E-01	3.090000363567150E-05	9.998983178437310E-01	3.090000363567150E-05	1.016821562664090E-04	-3.090000363567160E-05
1.023292992280760E+05	1.011286160818060E-04	-2.716331818595570E-05	9.998988713839220E-01	2.716331818595580E-05	9.998988713839220E-01	2.716331818595580E-05	1.011286160818060E-04	-2.716331818595570E-05
1.065368863667560E+05	1.006000298479740E-04	-2.343403325938060E-05	9.998993999701540E-01	2.343403325938070E-05	9.998993999701540E-01	2.343403325938070E-05	1.006000298479740E-04	-2.343403325938060E-05
1.109174815262400E+05	1.000965049634900E-04	-1.970852563560830E-05	9.998999034950410E-01	1.970852563560830E-05	9.998999034950410E-01	1.970852563560830E-05	1.000965049634900E-04	-1.970852563560830E-05
1.154781984689460E+05	9.961799608401720E-05	-1.598312175911500E-05	9.999003820039170E-01	1.598312175911500E-05	9.999003820039170E-01	1.598312175911500E-05	9.961799608401720E-05	-1.598312175911500E-05
1.202264434617410E+05	9.916432056760560E-05	-1.225407653732400E-05	9.999008356794310E-01	1.225407653732400E-05	9.999008356794310E-01	1.225407653732400E-05	9.916432056760560E-05	-1.225407653732400E-05
1.251699273031730E+05	9.873517449505640E-05	-8.517554793328330E-06	9.999012648255070E-01	8.517554793328350E-06	9.999012648255070E-01	8.517554793328350E-06	9.873517449505640E-05	-8.517554793328330E-06
1.303166778452300E+05	9.833014886362510E-05	-4.769615236185970E-06	9.999016698511330E-01	4.769615236185960E-06	9.999016698511330E-01	4.769615236185960E-06	9.833014886362510E-05	-4.769615236185970E-06
1.356750530299860E+05	9.794874560738790E-05	-1.006196760694920E-06	9.999020512543940E-01	1.006196760694930E-06	9.999020512543940E-01	1.006196760694930E-06	9.794874560738790E-05	-1.006196760694920E-06
1.412537544622760E+05	9.759039315568040E-05	2.776893147974930E-06	9.999024096068410E-01	-2.776893147974920E-06	9.999024096068410E-01	-2.776893147974920E-06	9.759039315568040E-05	2.776893147974930E-06
1.470618415404560E+05	9.725446129926100E-05	6.583988152516650E-06	9.999027455386990E-01	-6.583988152516640E-06	9.999027455386990E-01	-6.583988152516640E-06	9.725446129926100E-05	6.583988152516650E-06
1.531087461682030E+05	9.694027518961490E-05	1.041957120357370E-05	9.999030597248090E-01	-1.041957120357370E-05	9.999030597248090E-01	-1.041957120357370E-05	9.694027518961490E-05	1.041957120357370E-05
1.594042880712220E+05	9.664712834853320E-05	1.428828134186590E-05	9.999033528716560E-01	-1.428828134186600E-05	9.999033528716560E-01	-1.428828134186600E-05	9.664712834853320E-05	1.428828134186590E-05
1.659586907437560E+05	9.637429461133500E-05	1.819491941566330E-05	9.999036257053890E-01	-1.819491941566330E-05	9.999036257053890E-01	-1.819491941566330E-05	9.637429461133500E-05	1.819491941566330E-05
1.727825980507870E+05	9.612103896733100E-05	2.214445295379190E-05	9.999038789610340E-01	-2.214445295379190E-05	9.999038789610340E-01	-2.214445295379190E-05	9.612103896733100E-05	2.214445295379190E-05
1.798870915128790E+05	9.588662729493370E-05	2.614202041678060E-05	9.999041133727050E-01	-2.614202041678060E-05	9.999041133727050E-01	-2.614202041678060E-05	9.588662729493370E-05	2.614202041678060E-05
1.872837083017550E+05	9.567033501642890E-05	3.019293502828290E-05	9.999043296649840E-01	-3.019293502828290E-05	9.999043296649840E-01	-3.019293502828290E-05	9.567033501642890E-05	3.019293502828290E-05
1.949844599758050E+05	9.547145471902130E-05	3.430268836685740E-05	9.999045285452770E-01	-3.430268836685720E-05	9.999045285452770E-01	-3.430268836685720E-05	9.547145471902130E-05	3.430268836685740E-05
2.030018519859690E+05	9.528930280499750E-05	3.847695387566890E-05	9.999047106971970E-01	-3.847695387566900E-05	9.999047106971970E-01	-3.847695387566900E-05	9.528930280499750E-05	3.847695387566890E-05
2.113489039836650E+05	9.512322524521470E-05	4.272159042552530E-05	9.999048767747530E-01	-4.272159042552520E-05	9.999048767747530E-01	-4.272159042552520E-05	9.512322524521470E-05	4.272159042552530E-05
2.200391709637400E+05	9.497260251740080E-05	4.704264604554580E-05	9.999050273974810E-01	-4.704264604554570E-05	9.999050273974810E-01	-4.704264604554570E-05	9.497260251740080E-05	4.704264604554580E-05
2.290867652767780E+05	9.483685381446440E-05	5.144636191606250E-05	9.999051631461800E-01	-5.144636191606230E-05	9.999051631461800E-01	-5.144636191606230E-05	9.483685381446440E-05	5.144636191606250E-05
2.385063795465110E+05	9.471544060898470E-05	5.593917670044630E-05	9.999052845593940E-01	-5.593917670044650E-05	9.999052845593940E-01	-5.593917670044650E-05	9.471544060898470E-05	5.593917670044630E-05
2.483133105295580E+05	9.460786965866690E-05	6.052773127645600E-05	9.999053921303400E-01	-6.052773127645590E-05	9.999053921303400E-01	-6.052773127645590E-05	9.460786965866690E-05	6.052773127645600E-05
2.585234839562200E+05	9.451369553453690E-05	6.521887391361410E-05	9.999054863044650E-01	-6.521887391361410E-05	9.999054863044650E-01	-6.521887391361410E-05	9.451369553453690E-05	6.521887391361410E-05
2.691534803926920E+05	9.443252274925390E-05	7.001966593079280E-05	9.999055674772510E-01	-7.001966593079280E-05	9.999055674772510E-01	-7.001966593079280E-05	9.443252274925390E-05	7.001966593079280E-05
2.802205621666750E+05	9.436400755773010E-05	7.493738785774000E-05	9.999056359924440E-01	-7.493738785774020E-05	9.999056359924440E-01	-7.493738785774020E-05	9.436400755773010E-05	7.493738785774000E-05
2.917427014001170E+05	9.430785949639450E-05	7.997954611540950E-05	9.999056921405030E-01	-7.997954611540950E-05	9.999056921405030E-01	-7.997954611540950E-05	9.430785949639450E-05	7.997954611540950E-05
3.037386091946110E+05	9.426384272128260E-05	8.515388022257230E-05	9.999057361572750E-01	-8.515388022257200E-05	9.999057361572750E-01	-8.515388022257200E-05	9.426384272128260E-05	8.515388022257230E-05
3.162277660168390E+05	9.423177719880720E-05	9.046837053012420E-05	9.999057682228050E-01	-9.046837053012440E-05	9.999057682228050E-01	-9.046837053012440E-05	9.423177719880720E-05	9.046837053012420E-05
3.292304533334070E+05	9.421153979670970E-05	9.593124647958950E-05	9.999057884602050E-01	-9.593124647958960E-05	9.999057884602050E-01	-9.593124647958960E-05	9.421153979670970E-05	9.593124647958950E-05
3.427677865464510E+05	9.420306531642780E-05	1.015509953783560E-04	9.999057969346840E-01	-1.015509953783560E-04	9.999057969346840E-01	-1.015509953783560E-04	9.420306531642780E-05	1.015509953783560E-04
3.568617492834820E+05	9.420634750190650E-05	1.073363716810650E-04	9.999057936524990E-01	-1.073363716810660E-04	9.999057936524990E-01	-1.073363716810660E-04	9.420634750190650E-05	1.073363716810650E-04
3.715352290971730E+05	9.422144005386360E-05	1.132964067641740E-04	9.999057785599420E-01	-1.132964067641730E-04	9.999057785599420E-01	-1.132964067641730E-04	9.422144005386360E-05	1.132964067641740E-04
3.868120546330530E+05	9.424845767258710E-05	1.194404191788940E-04	9.999057515423310E-01	-1.194404191788940E-04	9.999057515423310E-01	-1.194404191788940E-04	9.424845767258710E-05	1.194404191788940E-04
4.027170343254600E+05	9.428757714649650E-05	1.257780253663510E-04	9.999057124228580E-01	-1.257780253663520E-04	9.999057124228580E-01	-1.257780253663520E-04	9.428757714649650E-05	1.257780253663510E-04
4.192759966846070E+05	9.433903849794080E-05	1.323191508179480E-04	9.999056609615010E-01	-1.323191508179480E-04	9.999056609615010E-01	-1.323191508179480E-04	9.433903849794080E-05	1.323191508179480E-04
4.365158322401670E+05	9.440314619187140E-05	1.390740416633790E-04	9.999055968538080E-01	-1.390740416633790E-04	9.999055968538080E-01	-1.390740416633790E-04	9.440314619187140E-05	1.390740416633790E-04
4.544645372095090E+05	9.448027040716210E-05	1.460532766686040E-04	9.999055197295880E-01	-1.460532766686040E-04	9.999055197295880E-01	-1.460532766686040E-04	9.448027040716210E-05	1.460532766686040E-04
4.731512589614820E+05	9.457084836432840E-05	1.532677796262840E-04	9.999054291516340E-01	-1.532677796262840E-04	9.999054291516340E-01	-1.532677796262840E-04	9.457084836432840E-05	1.532677796262840E-04
4.926063433495780E+05	9.467538569710090E-05	1.607288321217810E-04	9.999053246143020E-01	-1.607288321217810E-04	9.999053246143020E-01	-1.607288321217810E-04	9.467538569710090E-05	1.607288321217810E-04
5.128613839913660E+05	9.479445784879140E-05	1.684480866588890E-04	9.999052055421530E-01	-1.684480866588890E-04	9.999052055421530E-01	-1.684480866588890E-04	9.479445784879140E-05	1.684480866588890E-04
5.339492735741780E+05	9.492871146743140E-05	1.764375801309620E-04	9.999050712885300E-01	-1.764375801309620E-04	9.999050712885300E-01	-1.764375801309620E-04	9.492871146743140E-05	1.764375801309620E-04
5.559042572704040E+05	9.507886576634400E-05	1.847097476253670E-04	9.999049211342370E-01	-1.847097476253680E-04	9.999049211342370E-01	-1.847097476253680E-04	9.507886576634400E-05	1.847097476253670E-04
5.787619883491220E+05	9.524571380897640E-05	1.932774365520450E-04	9.999047542861880E-01	-1.932774365520450E-04	9.999047542861880E-01	-1.932774365520450E-04	9.524571380897640E-05	1.932774365520450E-04
6.025595860743590E+05	9.543012366856690E-05	2.021539210909540E-04	9.999045698763300E-01	-2.021539210909530E-04	9.999045698763300E-01	-2.021539210909530E-04	9.543012366856690E-05	2.021539210909540E-04
6.273356959840390E+05	9.563303940439930E-05	2.113529169580300E-04	9.999043669605910E-01	-2.113529169580300E-04	9.999043669605910E-01	-2.113529169580300E-04	9.563303940439930E-05	2.113529169580300E-04
6.531305526474730E+05	9.585548178724810E-05	2.208885964957810E-04	9.999041445182110E-01	-2.208885964957810E-04	9.999041445182110E-01	-2.208885964957810E-04	9.585548178724810E-05	2.208885964957810E-04
6.799860450033240E+05	9.609854869701980E-05	2.307756041024160E-04	9.999039014513050E-01	-2.307756041024160E-04	9.999039014513050E-01	-2.307756041024160E-04	9.609854869701980E-05	2.307756041024160E-04
7.079457843841400E+05	9.636341510587180E-05	2.410290720233460E-04	9.999036365848950E-01	-2.410290720233460E-04	9.999036365848950E-01	-2.410290720233460E-04	9.636341510587180E-05	2.410290720233460E-04
7.370551753379350E+05	9.665133255031650E-05	2.516646365407050E-04	9.999033486674500E-01	-2.516646365407050E-04	9.999033486674500E-01	-2.516646365407050E-04	9.665133255031650E-05	2.516646365407050E-04
7.673614893618200E+05	9.696362798635920E-05	2.626984546109880E-04	9.999030363720150E-01	-2.626984546109880E-04	9.999030363720150E-01	-2.626984546109880E-04	9.696362798635920E-05	2.626984546109880E-04
7.989139416674060E+05	9.730170191292870E-05	2.741472210179530E-04	9.999026982980860E-01	-2.741472210179530E-04	9.999026982980860E-01	-2.741472210179530E-04	9.730170191292870E-05	2.741472210179530E-04
8.317637711026720E+05	9.766702564121750E-05	2.860281861280530E-04	9.999023329743580E-01	-2.860281861280520E-04	9.999023329743580E-01	-2.860281861280520E-04	9.766702564121750E-05	2.860281861280530E-04
8.659643233600670E+05	9.806113758164110E-05	2.983591743588200E-04	9.999019388624180E-01	-2.983591743588200E-04	9.999019388624180E-01	-2.983591743588200E-04	9.806113758164110E-05	2.983591743588200E-04
9.015711376059580E+05	9.848563841671130E-05	3.111586034973140E-04	9.999015143615870E-01	-3.111586034973150E-04	9.999015143615870E-01	-3.111586034973150E-04	9.848563841671130E-05	3.111586034973140E-04
9.386420366721380E+05	9.894218502796180E-05	3.244455050355450E-04	9.999010578149680E-01	-3.244455050355440E-04	9.999010578149680E-01	-3.244455050355440E-04	9.894218502796180E-05	3.244455050355450E-04
9.772372209558120E+05	9.943248304920350E-05	3.382395457229440E-04	9.999005675169510E-01	-3.382395457229440E-04	9.999005675169510E-01	-3.382395457229440E-04	9.943248304920350E-05	3.382395457229440E-04
1.017419366180610E+06	9.995827792777400E-05	3.525610505718500E-04	9.999000417220760E-01	-3.525610505718510E-04	9.999000417220760E-01	-3.525610505718510E-04	9.995827792777400E-05	3.525610505718500E-04
1.059253725177290E+06	1.005213443913480E-04	3.674310275902860E-04	9.998994786556040E-01	-3.674310275902840E-04	9.998994786556040E-01	-3.674310275902840E-04	1.005213443913480E-04	3.674310275902860E-04
1.102808233849550E+06	1.011234742412800E-04	3.828711945558260E-04	9.998988765257610E-01	-3.828711945558270E-04	9.998988765257610E-01	-3.828711945558270E-04	1.011234742412800E-04	3.828711945558260E-04
1.148153621496890E+06	1.017664624256140E-04	3.989040081841050E-04	9.998982335375740E-01	-3.989040081841050E-04	9.998982335375740E-01	-3.989040081841050E-04	1.017664624256140E-04	3.989040081841050E-04
1.195363525673720E+06	1.024520913867650E-04	4.155526960838980E-04	9.998975479086170E-01	-4.155526960839000E-04	9.998975479086170E-01	-4.155526960839000E-04	1.024520913867650E-04	4.155526960838980E-04
1.244514611771390E+06	1.031821137311970E-04	4.328412919252170E-04	9.998968178862730E-01	-4.328412919252180E-04	9.998968178862730E-01	-4.328412919252180E-04	1.031821137311970E-04	4.328412919252170E-04
1.295686697517020E+06	1.039582333316650E-04	4.507946742759090E-04	9.998960417666700E-01	-4.507946742759100E-04	9.998960417666700E-01	-4.507946742759100E-04	1.039582333316650E-04	4.507946742759090E-04
1.348962882591660E+06	1.047820850466700E-04	4.694386095820080E-04	9.998952179149490E-01	-4.694386095820060E-04	9.998952179149490E-01	-4.694386095820060E-04	1.047820850466700E-04	4.694386095820080E-04
1.404429683577950E+06	1.056552133258720E-04	4.887997997752620E-04	9.998943447866690E-01	-4.887997997752590E-04	9.998943447866690E-01	-4.887997997752590E-04	1.056552133258720E-04	4.887997997752620E-04
1.462177174456720E+06	1.065790500630120E-04	5.089059349841860E-04	9.998934209499360E-01	-5.089059349841860E-04	9.998934209499360E-01	-5.089059349841860E-04	1.065790500630120E-04	5.089059349841860E-04
1.522299132880420E+06	1.075548921566450E-04	5.297857517993480E-04	9.998924451078420E-01	-5.297857517993480E-04	9.998924451078420E-01	-5.297857517993480E-04	1.075548921566450E-04	5.297857517993480E-04
1.584893192461110E+06	1.085838793404720E-04	5.514690974967090E-04	9.998914161206580E-01	-5.514690974967080E-04	9.998914161206580E-01	-5.514690974967080E-04	1.085838793404720E-04	5.514690974967090E-04
1.650061001320230E+06	1.096669729445080E-04	5.739870005518300E-04	9.998903330270590E-01	-5.739870005518320E-04	9.998903330270590E-01	-5.739870005518320E-04	1.096669729445080E-04	5.739870005518300E-04
1.717908387157590E+06	1.108049363403530E-04	5.973717476817440E-04	9.998891950636580E-01	-5.973717476817420E-04	9.998891950636580E-01	-5.973717476817420E-04	1.108049363403530E-04	5.973717476817440E-04
1.788545529107770E+06	1.119983179018350E-04	6.216569675294710E-04	9.998880016820960E-01	-6.216569675294690E-04	9.998880016820960E-01	-6.216569675294690E-04	1.119983179018350E-04	6.216569675294710E-04
1.862087136662870E+06	1.132474373694720E-04	6.468777209601170E-04	9.998867525626260E-01	-6.468777209601150E-04	9.998867525626260E-01	-6.468777209601150E-04	1.132474373694720E-04	6.468777209601170E-04
1.938652635952210E+06	1.145523765363180E-04	6.730705977710760E-04	9.998854476234660E-01	-6.730705977710760E-04	9.998854476234660E-01	-6.730705977710760E-04	1.145523765363180E-04	6.730705977710760E-04
2.018366363681560E+06	1.159129751671600E-04	7.002738194366750E-04	9.998840870248290E-01	-7.002738194366720E-04	9.998840870248290E-01	-7.002738194366720E-04	1.159129751671600E-04	7.002738194366750E-04
2.101357769046750E+06	1.173288330170590E-04	7.285273473179510E-04	9.998826711669850E-01	-7.285273473179530E-04	9.998826711669850E-01	-7.285273473179530E-04	1.173288330170590E-04	7.285273473179510E-04
2.187761623949560E+06	1.187993187248790E-04	7.578729955802440E-04	9.998812006812740E-01	-7.578729955802430E-04	9.998812006812740E-01	-7.578729955802430E-04	1.187993187248790E-04	7.578729955802440E-04
2.277718241857330E+06	1.203235862214490E-04	7.883545478863860E-04	9.998796764137830E-01	-7.883545478863890E-04	9.998796764137830E-01	-7.883545478863890E-04	1.203235862214490E-04	7.883545478863860E-04
2.371373705661660E+06	1.219005991115320E-04	8.200178767828980E-04	9.998780994008930E-01	-8.200178767829020E-04	9.998780994008930E-01	-8.200178767829020E-04	1.219005991115320E-04	8.200178767828980E-04
2.468880104906210E+06	1.235291632689920E-04	8.529110645833860E-04	9.998764708367320E-01	-8.529110645833860E-04	9.998764708367320E-01	-8.529110645833860E-04	1.235291632689920E-04	8.529110645833860E-04
2.570395782768870E+06	1.252079676336890E-04	8.870845244874520E-04	9.998747920323650E-01	-8.870845244874510E-04	9.998747920323650E-01	-8.870845244874510E-04	1.252079676336890E-04	8.870845244874520E-04
2.676085593199340E+06	1.269356329282490E-04	9.225911206643920E-04	9.998730643670740E-01	-9.225911206643940E-04	9.998730643670740E-01	-9.225911206643940E-04	1.269356329282490E-04	9.225911206643920E-04
2.786121168629780E+06	1.287107677373740E-04	9.594862860839590E-04	9.998712892322590E-01	-9.594862860839550E-04	9.998712892322590E-01	-9.594862860839550E-04	1.287107677373740E-04	9.594862860839590E-04
2.900681198693160E+06	1.305320311275640E-04	9.978281369934040E-04	9.998694679688680E-01	-9.978281369933990E-04	9.998694679688680E-01	-9.978281369933990E-04	1.305320311275640E-04	9.978281369934040E-04
3.019951720402020E+06	1.323982007475820E-04	1.037677583117430E-03	9.998676017992560E-01	-1.037677583117430E-03	9.998676017992560E-01	-1.037677583117430E-03	1.323982007475820E-04	1.037677583117430E-03
3.144126420258800E+06	1.343082451551460E-04	1.079098432889810E-03	9.998656917548440E-01	-1.079098432889810E-03	9.998656917548440E-01	-1.079098432889810E-03	1.343082451551460E-04	1.079098432889810E-03
3.273406948788390E+06	1.362613989763920E-04	1.122157493297330E-03	9.998637386010200E-01	-1.122157493297330E-03	9.998637386010200E-01	-1.122157493297330E-03	1.362613989763920E-04	1.122157493297330E-03
3.408003248003660E+06	1.382572394311030E-04	1.166924664217100E-03	9.998617427605650E-01	-1.166924664217090E-03	9.998617427605650E-01	-1.166924664217090E-03	1.382572394311030E-04	1.166924664217100E-03
3.548133892335760E+06	1.402957627536710E-04	1.213473027435350E-03	9.998597042372470E-01	-1.213473027435360E-03	9.998597042372470E-01	-1.213473027435360E-03	1.402957627536710E-04	1.213473027435350E-03
3.694026443582840E+06	1.423774591071180E-04	1.261878930835790E-03	9.998576225408950E-01	-1.261878930835790E-03	9.998576225408950E-01	-1.261878930835790E-03	1.423774591071180E-04	1.261878930835790E-03
3.845917820453550E+06	1.445033847200850E-04	1.312222068515930E-03	9.998554966152780E-01	-1.312222068515930E-03	9.998554966152780E-01	-1.312222068515930E-03	1.445033847200850E-04	1.312222068515930E-03
4.004054683305470E+06	1.466752301648660E-04	1.364585557819840E-03	9.998533247698350E-01	-1.364585557819840E-03	9.998533247698350E-01	-1.364585557819840E-03	1.466752301648660E-04	1.364585557819840E-03
4.168693834703360E+06	1.488953839247360E-04	1.419056014449900E-03	9.998511046160740E-01	-1.419056014449900E-03	9.998511046160740E-01	-1.419056014449900E-03	1.488953839247360E-04	1.419056014449900E-03
4.340102636447450E+06	1.511669906553300E-04	1.475723626932990E-03	9.998488330093420E-01	-1.475723626932990E-03	9.998488330093420E-01	-1.475723626932990E-03	1.511669906553300E-04	1.475723626932990E-03
4.518559443749230E+06	1.534940038106020E-04	1.534682231764110E-03	9.998465059961920E-01	-1.534682231764110E-03	9.998465059961920E-01	-1.534682231764110E-03	1.534940038106020E-04	1.534682231764110E-03
4.704354057259770E+06	1.558812325625500E-04	1.596029390534570E-03	9.998441187674410E-01	-1.596029390534580E-03	9.998441187674410E-01	-1.596029390534580E-03	1.558812325625500E-04	1.596029390534570E-03
4.897788193684470E+06	1.583343831804460E-04	1.659866470278500E-03	9.998416656168220E-01	-1.659866470278500E-03	9.998416656168220E-01	-1.659866470278500E-03	1.583343831804460E-04	1.659866470278500E-03
5.099175975748710E+06	1.608600952374560E-04	1.726298728149030E-03	9.998391399047590E-01	-1.726298728149020E-03	9.998391399047590E-01	-1.726298728149020E-03	1.608600952374560E-04	1.726298728149030E-03
5.308844442309900E+06	1.634659731711950E-04	1.795435401376490E-03	9.998365340268250E-01	-1.795435401376480E-03	9.998365340268250E-01	-1.795435401376480E-03	1.634659731711950E-04	1.795435401376490E-03
5.527134079444360E+06	1.661606138341130E-04	1.867389803275850E-03	9.998338393861650E-01	-1.867389803275850E-03	9.998338393861650E-01	-1.867389803275850E-03	1.661606138341130E-04	1.867389803275850E-03
5.754399373371580E+06	1.689536307275420E-04	1.942279425874760E-03	9.998310463692750E-01	-1.942279425874770E-03	9.998310463692750E-01	-1.942279425874770E-03	1.689536307275420E-04	1.942279425874760E-03
5.991009386113550E+06	1.718556756203160E-04	2.020226049536240E-03	9.998281443243760E-01	-2.020226049536230E-03	9.998281443243760E-01	-2.020226049536230E-03	1.718556756203160E-04	2.020226049536240E-03
6.237348354824210E+06	1.748784582123420E-04	2.101355859763990E-03	9.998251215417890E-01	-2.101355859764000E-03	9.998251215417890E-01	-2.101355859764000E-03	1.748784582123420E-04	2.101355859763990E-03
6.493816315762140E+06	1.780347644203470E-04	2.185799571211270E-03	9.998219652355830E-01	-2.185799571211280E-03	9.998219652355830E-01	-2.185799571211280E-03	1.780347644203470E-04	2.185799571211270E-03
6.760829753919830E+06	1.813384737435390E-04	2.273692558774310E-03	9.998186615262590E-01	-2.273692558774320E-03	9.998186615262590E-01	-2.273692558774320E-03	1.813384737435390E-04	2.273692558774310E-03
7.038822279364580E+06	1.848045760175640E-04	2.365174995542460E-03	9.998151954239810E-01	-2.365174995542460E-03	9.998151954239810E-01	-2.365174995542460E-03	1.848045760175640E-04	2.365174995542460E-03
7.328245331389050E+06	1.884491876930890E-04	2.460391997304370E-03	9.998115508123110E-01	-2.460391997304380E-03	9.998115508123110E-01	-2.460391997304380E-03	1.884491876930890E-04	2.460391997304370E-03
7.629568911615340E+06	1.922895675867780E-04	2.559493773273910E-03	9.998077104324150E-01	-2.559493773273910E-03	9.998077104324150E-01	-2.559493773273910E-03	1.922895675867780E-04	2.559493773273910E-03
7.943282347242820E+06	1.963441318536690E-04	2.662635782703950E-03	9.998036558681480E-01	-2.662635782703950E-03	9.998036558681480E-01	-2.662635782703950E-03	1.963441318536690E-04	2.662635782703950E-03
8.269895085679340E+06	2.006324677261750E-04	2.769978897098400E-03	9.997993675322730E-01	-2.769978897098400E-03	9.997993675322730E-01	-2.769978897098400E-03	2.006324677261750E-04	2.769978897098400E-03
8.609937521846030E+06	2.051753453614420E-04	2.881689567817480E-03	9.997948246546360E-01	-2.881689567817470E-03	9.997948246546360E-01	-2.881689567817470E-03	2.051753453614420E-04	2.881689567817480E-03
8.963961859499520E+06	2.099947269399130E-04	2.997939998994520E-03	9.997900052730590E-01	-2.997939998994520E-03	9.997900052730590E-01	-2.997939998994520E-03	2.099947269399130E-04	2.997939998994520E-03
9.332543007969930E+06	2.151137719685380E-04	3.118908325848290E-03	9.997848862280360E-01	-3.118908325848310E-03	9.997848862280360E-01	-3.118908325848310E-03	2.151137719685380E-04	3.118908325848290E-03
9.716279515771080E+06	2.205568375666480E-04	3.244778798681390E-03	9.997794431624290E-01	-3.244778798681380E-03	9.997794431624290E-01	-3.244778798681380E-03	2.205568375666480E-04	3.244778798681390E-03
1.011579454259900E+07	2.263494723566910E-04	3.375741973105930E-03	9.997736505276390E-01	-3.375741973105910E-03	9.997736505276390E-01	-3.375741973105910E-03	2.263494723566910E-04	3.375741973105930E-03
1.053173687129720E+07	2.325184024516330E-04	3.511994907330090E-03	9.997674815975440E-01	-3.511994907330070E-03	9.997674815975440E-01	-3.511994907330070E-03	2.325184024516330E-04	3.511994907330090E-03
1.096478196143190E+07	2.390915079335950E-04	3.653741367679080E-03	9.997609084920660E-01	-3.653741367679080E-03	9.997609084920660E-01	-3.653741367679080E-03	2.390915079335950E-04	3.653741367679080E-03
1.141563304618850E+07	2.460977881624220E-04	3.801192043906290E-03	9.997539022118360E-01	-3.801192043906280E-03	9.997539022118360E-01	-3.801192043906280E-03	2.460977881624220E-04	3.801192043906290E-03
1.188502227437020E+07	2.535673142488910E-04	3.954564776277460E-03	9.997464326857470E-01	-3.954564776277440E-03	9.997464326857470E-01	-3.954564776277440E-03	2.535673142488910E-04	3.954564776277460E-03
1.237371189935350E+07	2.615311670867640E-04	4.114084796879560E-03	9.997384688329090E-01	-4.114084796879550E-03	9.997384688329090E-01	-4.114084796879550E-03	2.615311670867640E-04	4.114084796879560E-03
1.288249551693140E+07	2.700213594737680E-04	4.279984988110330E-03	9.997299786405240E-01	-4.279984988110320E-03	9.997299786405240E-01	-4.279984988110320E-03	2.700213594737680E-04	4.279984988110330E-03
1.341219935405370E+07	2.790707410784230E-04	4.452506161837760E-03	9.997209292589200E-01	-4.452506161837750E-03	9.997209292589200E-01	-4.452506161837750E-03	2.790707410784230E-04	4.452506161837760E-03
1.396368361055940E+07	2.887128853416830E-04	4.631897363268680E-03	9.997112871146550E-01	-4.631897363268660E-03	9.997112871146550E-01	-4.631897363268660E-03	2.887128853416830E-04	4.631897363268680E-03
1.453784385607670E+07	2.989819578543420E-04	4.818416204115460E-03	9.997010180421470E-01	-4.818416204115460E-03	9.997010180421470E-01	-4.818416204115460E-03	2.989819578543420E-04	4.818416204115460E-03
1.513561248436210E+07	3.099125663359910E-04	5.012329230179110E-03	9.996900874336640E-01	-5.012329230179100E-03	9.996900874336640E-01	-5.012329230179100E-03	3.099125663359910E-04	5.012329230179110E-03
1.575796022743930E+07	3.215395930693630E-04	5.213912328949980E-03	9.996784604069270E-01	-5.213912328949950E-03	9.996784604069270E-01	-5.213912328949950E-03	3.215395930693630E-04	5.213912328949980E-03
1.640589773199540E+07	3.338980115205770E-04	5.423451183227240E-03	9.996661019884790E-01	-5.423451183227240E-03	9.996661019884790E-01	-5.423451183227240E-03	3.338980115205770E-04	5.423451183227240E-03
1.708047720059710E+07	3.470226899012280E-04	5.641241777046450E-03	9.996529773101030E-01	-5.641241777046480E-03	9.996529773101030E-01	-5.641241777046480E-03	3.470226899012280E-04	5.641241777046450E-03
1.778279410038930E+07	3.609481855926600E-04	5.867590960330450E-03	9.996390518144120E-01	-5.867590960330470E-03	9.996390518144120E-01	-5.867590960330470E-03	3.609481855926600E-04	5.867590960330450E-03
1.851398894205270E+07	3.757085356369980E-04	6.102817078605130E-03	9.996242914643590E-01	-6.102817078605110E-03	9.996242914643590E-01	-6.102817078605110E-03	3.757085356369980E-04	6.102817078605130E-03
1.927524913190940E+07	3.913370498718840E-04	6.347250673804520E-03	9.996086629501250E-01	-6.347250673804490E-03	9.996086629501250E-01	-6.347250673804490E-03	3.913370498718840E-04	6.347250673804520E-03
2.006781090018190E+07	4.078661147006200E-04	6.601235261582900E-03	9.995921338853040E-01	-6.601235261582930E-03	9.995921338853040E-01	-6.601235261582930E-03	4.078661147006200E-04	6.601235261582900E-03
2.089296130854040E+07	4.253270168873420E-04	6.865128189633740E-03	9.995746729831170E-01	-6.865128189633770E-03	9.995746729831170E-01	-6.865128189633770E-03	4.253270168873420E-04	6.865128189633740E-03
2.175204034019530E+07	4.437497980746340E-04	7.139301580252860E-03	9.995562502019210E-01	-7.139301580252830E-03	9.995562502019210E-01	-7.139301580252830E-03	4.437497980746340E-04	7.139301580252860E-03
2.264644307593060E+07	4.631631518539990E-04	7.424143358780560E-03	9.995368368481430E-01	-7.424143358780530E-03	9.995368368481430E-01	-7.424143358780530E-03	4.631631518539990E-04	7.424143358780560E-03
2.357762195961260E+07	4.835943760858720E-04	7.720058367630580E-03	9.995164056239100E-01	-7.720058367630550E-03	9.995164056239100E-01	-7.720058367630550E-03	4.835943760858720E-04	7.720058367630580E-03
2.454708915685030E+07	5.050693936703720E-04	8.027469563404270E-03	9.994949306063250E-01	-8.027469563404230E-03	9.994949306063250E-01	-8.027469563404230E-03	5.050693936703720E-04	8.027469563404270E-03
2.555641901064150E+07	5.276128550232620E-04	8.346819292165400E-03	9.994723871449820E-01	-8.346819292165440E-03	9.994723871449820E-01	-8.346819292165440E-03	5.276128550232620E-04	8.346819292165400E-03
2.660725059798820E+07	5.512483350377160E-04	8.678570635421440E-03	9.994487516649630E-01	-8.678570635421440E-03	9.994487516649630E-01	-8.678570635421440E-03	5.512483350377160E-04	8.678570635421440E-03
2.770129039163740E+07	5.759986362579560E-04	9.023208816839740E-03	9.994240013637450E-01	-9.023208816839760E-03	9.994240013637450E-01	-9.023208816839760E-03	5.759986362579560E-04	9.023208816839740E-03
2.884031503126610E+07	6.018862083337210E-04	9.381242657368590E-03	9.993981137916670E-01	-9.381242657368610E-03	9.993981137916670E-01	-9.381242657368610E-03	6.018862083337210E-04	9.381242657368590E-03
3.002617420861280E+07	6.289336915843730E-04	9.753206064403320E-03	9.993710663084180E-01	-9.753206064403340E-03	9.993710663084180E-01	-9.753206064403340E-03	6.289336915843730E-04	9.753206064403320E-03
3.126079367123960E+07	6.571645897399310E-04	1.013965953908100E-02	9.993428354102640E-01	-1.013965953908100E-02	9.993428354102640E-01	-1.013965953908100E-02	6.571645897399310E-04	1.013965953908100E-02
3.254617834980470E+07	6.866040737550600E-04	1.054119168486750E-02	9.993133959262420E-01	-1.054119168486750E-02	9.993133959262420E-01	-1.054119168486750E-02	6.866040737550600E-04	1.054119168486750E-02
3.388441561392030E+07	7.172799151640040E-04	1.095842070042310E-02	9.992827200848410E-01	-1.095842070042320E-02	9.992827200848410E-01	-1.095842070042320E-02	7.172799151640040E-04	1.095842070042310E-02
3.527767866188750E+07	7.492235439514360E-04	1.139199584038670E-02	9.992507764560480E-01	-1.139199584038670E-02	9.992507764560480E-01	-1.139199584038670E-02	7.492235439514360E-04	1.139199584038670E-02
3.672823004980850E+07	7.824712225703090E-04	1.184259882923310E-02	9.992175287774290E-01	-1.184259882923310E-02	9.992175287774290E-01	-1.184259882923310E-02	7.824712225703090E-04	1.184259882923310E-02
3.823842536581130E+07	8.170653247651560E-04	1.231094521567530E-02	9.991829346752380E-01	-1.231094521567540E-02	9.991829346752380E-01	-1.231094521567540E-02	8.170653247651560E-04	1.231094521567530E-02
3.981071705534980E+07	8.530557054711850E-04	1.279778565814140E-02	9.991469442945290E-01	-1.279778565814140E-02	9.991469442945290E-01	-1.279778565814140E-02	8.530557054711850E-04	1.279778565814140E-02
4.144765840379400E+07	8.905011464364390E-04	1.330390713547210E-02	9.991094988535640E-01	-1.330390713547210E-02	9.991094988535640E-01	-1.330390713547210E-02	8.905011464364390E-04	1.330390713547210E-02
4.315190768277670E+07	9.294708614925300E-04	1.383013408096510E-02	9.990705291385070E-01	-1.383013408096510E-02	9.990705291385070E-01	-1.383013408096510E-02	9.294708614925300E-04	1.383013408096510E-02
4.492623246702950E+07	9.700460456552030E-04	1.437732944201040E-02	9.990299539543400E-01	-1.437732944201040E-02	9.990299539543400E-01	-1.437732944201040E-02	9.700460456552030E-04	1.437732944201040E-02
4.677351412871990E+07	1.012321453475760E-03	1.494639567155320E-02	9.989876785465250E-01	-1.494639567155320E-02	9.989876785465250E-01	-1.494639567155320E-02	1.012321453475760E-03	1.494639567155320E-02
4.869675251658640E+07	1.056406994231300E-03	1.553827566126130E-02	9.989435930057700E-01	-1.553827566126130E-02	9.989435930057700E-01	-1.553827566126130E-02	1.056406994231300E-03	1.553827566126130E-02
5.069907082747060E+07	1.102429334513190E-03	1.615395362935170E-02	9.988975706654900E-01	-1.615395362935180E-02	9.988975706654900E-01	-1.615395362935180E-02	1.102429334513190E-03	1.615395362935170E-02
5.278372067815780E+07	1.150533502378160E-03	1.679445597835740E-02	9.988494664976180E-01	-1.679445597835730E-02	9.988494664976180E-01	-1.679445597835730E-02	1.150533502378160E-03	1.679445597835740E-02
5.495408738576260E+07	1.200884491262190E-03	1.746085213961840E-02	9.987991155087400E-01	-1.746085213961850E-02	9.987991155087400E-01	-1.746085213961850E-02	1.200884491262190E-03	1.746085213961840E-02
5.721369546523270E+07	1.253668866103810E-03	1.815425542186570E-02	9.987463311338930E-01	-1.815425542186560E-02	9.987463311338930E-01	-1.815425542186560E-02	1.253668866103810E-03	1.815425542186570E-02
5.956621435290110E+07	1.309096378366740E-03	1.887582388098310E-02	9.986909036216360E-01	-1.887582388098320E-02	9.986909036216360E-01	-1.887582388098320E-02	1.309096378366740E-03	1.887582388098310E-02
6.201546436537860E+07	1.367401600698160E-03	1.962676122691820E-02	9.986325983993010E-01	-1.962676122691820E-02	9.986325983993010E-01	-1.962676122691820E-02	1.367401600698160E-03	1.962676122691820E-02
6.456542290346570E+07	1.428845595649990E-03	2.040831778189190E-02	9.985711544043530E-01	-2.040831778189190E-02	9.985711544043530E-01	-2.040831778189190E-02	1.428845595649990E-03	2.040831778189190E-02
6.722023091115690E+07	1.493717636107260E-03	2.122179150165260E-02	9.985062823638970E-01	-2.122179150165270E-02	9.985062823638970E-01	-2.122179150165270E-02	1.493717636107260E-03	2.122179150165260E-02
6.998419960022750E+07	1.562336997744170E-03	2.206852906870920E-02	9.984376630022550E-01	-2.206852906870920E-02	9.984376630022550E-01	-2.206852906870920E-02	1.562336997744170E-03	2.206852906870920E-02
7.286181745132300E+07	1.635054845935790E-03	2.294992706337440E-02	9.983649451540600E-01	-2.294992706337430E-02	9.983649451540600E-01	-2.294992706337430E-02	1.635054845935790E-03	2.294992706337440E-02
7.585775750291860E+07	1.712256241110300E-03	2.386743321523560E-02	9.982877437588950E-01	-2.386743321523570E-02	9.982877437588950E-01	-2.386743321523570E-02	1.712256241110300E-03	2.386743321523560E-02
7.897688493998890E+07	1.794362287581230E-03	2.482254773443970E-02	9.982056377124190E-01	-2.482254773443970E-02	9.982056377124190E-01	-2.482254773443970E-02	1.794362287581230E-03	2.482254773443970E-02
8.222426499470740E+07	1.881832451526500E-03	2.581682471904040E-02	9.981181675484770E-01	-2.581682471904050E-02	9.981181675484770E-01	-2.581682471904050E-02	1.881832451526500E-03	2.581682471904040E-02
8.560517117200980E+07	1.975167074064480E-03	2.685187363164890E-02	9.980248329259340E-01	-2.685187363164880E-02	9.980248329259340E-01	-2.685187363164880E-02	1.975167074064480E-03	2.685187363164890E-02
8.912509381337470E+07	2.074910105416460E-03	2.792936083584090E-02	9.979250898945810E-01	-2.792936083584090E-02	9.979250898945810E-01	-2.792936083584090E-02	2.074910105416460E-03	2.792936083584090E-02
9.278974901273330E+07	2.181652086027070E-03	2.905101118013580E-02	9.978183479139690E-01	-2.905101118013570E-02	9.978183479139690E-01	-2.905101118013570E-02	2.181652086027070E-03	2.905101118013580E-02
9.660508789898150E+07	2.296033400323770E-03	3.021860961493070E-02	9.977039665996760E-01	-3.021860961493070E-02	9.977039665996760E-01	-3.021860961493070E-02	2.296033400323770E-03	3.021860961493070E-02
1.005773063001740E+08	2.418747828606060E-03	3.143400282545870E-02	9.975812521713900E-01	-3.143400282545860E-02	9.975812521713900E-01	-3.143400282545860E-02	2.418747828606060E-03	3.143400282545870E-02
1.047128548050900E+08	2.550546422419320E-03	3.269910086161760E-02	9.974494535775810E-01	-3.269910086161760E-02	9.974494535775810E-01	-3.269910086161760E-02	2.550546422419320E-03	3.269910086161760E-02
1.090184492385130E+08	2.692241728726500E-03	3.401587874330820E-02	9.973077582712780E-01	-3.401587874330840E-02	9.973077582712780E-01	-3.401587874330840E-02	2.692241728726500E-03	3.401587874330820E-02
1.135010815672320E+08	2.844712388269010E-03	3.538637801767830E-02	9.971552876117350E-01	-3.538637801767840E-02	9.971552876117350E-01	-3.538637801767840E-02	2.844712388269010E-03	3.538637801767830E-02
1.181680312544790E+08	3.008908133710530E-03	3.681270824228880E-02	9.969910918662900E-01	-3.681270824228880E-02	9.969910918662900E-01	-3.681270824228880E-02	3.008908133710530E-03	3.681270824228880E-02
1.230268770812380E+08	3.185855213478770E-03	3.829704836566700E-02	9.968141447865220E-01	-3.829704836566710E-02	9.968141447865220E-01	-3.829704836566710E-02	3.185855213478770E-03	3.829704836566700E-02
1.280855094536280E+08	3.376662267641740E-03	3.984164797387790E-02	9.966233377323550E-01	-3.984164797387780E-02	9.966233377323550E-01	-3.984164797387780E-02	3.376662267641740E-03	3.984164797387790E-02
1.333521432163330E+08	3.582526682641910E-03	4.144882836860200E-02	9.964174733173590E-01	-4.144882836860200E-02	9.964174733173590E-01	-4.144882836860200E-02	3.582526682641910E-03	4.144882836860200E-02
1.388353309929050E+08	3.804741452223220E-03	4.312098343864700E-02	9.961952585477810E-01	-4.312098343864720E-02	9.961952585477810E-01	-4.312098343864720E-02	3.804741452223220E-03	4.312098343864700E-02
1.445439770745930E+08	4.044702572368730E-03	4.486058028281940E-02	9.959552974276290E-01	-4.486058028281930E-02	9.959552974276290E-01	-4.486058028281930E-02	4.044702572368730E-03	4.486058028281940E-02
1.504873518802520E+08	4.303916998459080E-03	4.667015953755020E-02	9.956960830015370E-01	-4.667015953755000E-02	9.956960830015370E-01	-4.667015953755000E-02	4.303916998459080E-03	4.667015953755020E-02
1.566751070108150E+08	4.584011193089200E-03	4.855233535757060E-02	9.954159888069090E-01	-4.855233535757060E-02	9.954159888069090E-01	-4.855233535757060E-02	4.584011193089200E-03	4.855233535757060E-02
1.631172909227840E+08	4.886740292966380E-03	5.050979499220910E-02	9.951132597070290E-01	-5.050979499220890E-02	9.951132597070290E-01	-5.050979499220890E-02	4.886740292966380E-03	5.050979499220910E-02
1.698243652461750E+08	5.213997922955460E-03	5.254529789347890E-02	9.947860020770410E-01	-5.254529789347870E-02	9.947860020770410E-01	-5.254529789347870E-02	5.213997922955460E-03	5.254529789347890E-02
1.768072217734320E+08	5.567826684536600E-03	5.466167428499160E-02	9.944321733154650E-01	-5.466167428499180E-02	9.944321733154650E-01	-5.466167428499180E-02	5.567826684536600E-03	5.466167428499160E-02
1.840772001468960E+08	5.950429344576190E-03	5.686182311285190E-02	9.940495706554210E-01	-5.686182311285170E-02	9.940495706554210E-01	-5.686182311285170E-02	5.950429344576190E-03	5.686182311285190E-02
1.916461062735390E+08	6.364180748245220E-03	5.914870929098800E-02	9.936358192517500E-01	-5.914870929098780E-02	9.936358192517500E-01	-5.914870929098780E-02	6.364180748245220E-03	5.914870929098800E-02
1.995262314968890E+08	6.811640476996980E-03	6.152536014384850E-02	9.931883595230010E-01	-6.152536014384840E-02	9.931883595230010E-01	-6.152536014384840E-02	6.811640476996980E-03	6.152536014384850E-02
2.077303725572570E+08	7.295566268563350E-03	6.399486093900740E-02	9.927044337314390E-01	-6.399486093900750E-02	9.927044337314390E-01	-6.399486093900750E-02	7.295566268563350E-03	6.399486093900740E-02
2.162718523727030E+08	7.818928210752530E-03	6.656034939099480E-02	9.921810717892470E-01	-6.656034939099480E-02	9.921810717892470E-01	-6.656034939099480E-02	7.818928210752530E-03	6.656034939099480E-02
2.251645416744630E+08	8.384923714194000E-03	6.922500900554830E-02	9.916150762858040E-01	-6.922500900554810E-02	9.916150762858040E-01	-6.922500900554810E-02	8.384923714194000E-03	6.922500900554830E-02
2.344228815319930E+08	8.996993260847620E-03	7.199206112057300E-02	9.910030067391490E-01	-7.199206112057270E-02	9.910030067391490E-01	-7.199206112057270E-02	8.996993260847620E-03	7.199206112057300E-02
2.440619068041980E+08	9.658836914773470E-03	7.486475548640090E-02	9.903411630852310E-01	-7.486475548640130E-02	9.903411630852310E-01	-7.486475548640130E-02	9.658836914773470E-03	7.486475548640090E-02
2.540972705549310E+08	1.037443156904200E-02	7.784635921355560E-02	9.896255684309560E-01	-7.784635921355540E-02	9.896255684309560E-01	-7.784635921355540E-02	1.037443156904200E-02	7.784635921355560E-02
2.645452694724060E+08	1.114804888741620E-02	8.094014390134590E-02	9.888519511125800E-01	-8.094014390134560E-02	9.888519511125800E-01	-8.094014390134560E-02	1.114804888741620E-02	8.094014390134590E-02
2.754228703338170E+08	1.198427388114890E-02	8.414937074530080E-02	9.880157261188520E-01	-8.414937074530090E-02	9.880157261188520E-01	-8.414937074530090E-02	1.198427388114890E-02	8.414937074530080E-02
2.867477375581320E+08	1.288802403953970E-02	8.747727340611240E-02	9.871119759604600E-01	-8.747727340611240E-02	9.871119759604600E-01	-8.747727340611240E-02	1.288802403953970E-02	8.747727340611240E-02
2.985382618917970E+08	1.386456890732170E-02	9.092703840761990E-02	9.861354310926810E-01	-9.092703840762010E-02	9.861354310926810E-01	-9.092703840762010E-02	1.386456890732170E-02	9.092703840761990E-02
3.108135902739480E+08	1.491954997204090E-02	9.450178281686980E-02	9.850804500279640E-01	-9.450178281687020E-02	9.850804500279640E-01	-9.450178281687020E-02	1.491954997204090E-02	9.450178281686980E-02
3.235936569296290E+08	1.605900068988830E-02	9.820452894603660E-02	9.839409993101150E-01	-9.820452894603680E-02	9.839409993101150E-01	-9.820452894603680E-02	1.605900068988830E-02	9.820452894603660E-02
3.368992157414920E+08	1.728936643846460E-02	1.020381758045860E-01	9.827106335615370E-01	-1.020381758045860E-01	9.827106335615370E-01	-1.020381758045860E-01	1.728936643846460E-02	1.020381758045860E-01
3.507518739525690E+08	1.861752413921870E-02	1.060054670213570E-01	9.813824758607800E-01	-1.060054670213570E-01	9.813824758607800E-01	-1.060054670213570E-01	1.861752413921870E-02	1.060054670213570E-01
3.651741272548390E+08	2.005080124043080E-02	1.101089549512710E-01	9.799491987595730E-01	-1.101089549512720E-01	9.799491987595730E-01	-1.101089549512720E-01	2.005080124043080E-02	1.101089549512710E-01
3.801893963205620E+08	2.159699369319220E-02	1.143509606812620E-01	9.784030063068070E-01	-1.143509606812620E-01	9.784030063068070E-01	-1.143509606812620E-01	2.159699369319220E-02	1.143509606812620E-01
3.958220648357240E+08	2.326438248767560E-02	1.187335296562090E-01	9.767356175123240E-01	-1.187335296562090E-01	9.767356175123240E-01	-1.187335296562090E-01	2.326438248767560E-02	1.187335296562090E-01
4.120975190973310E+08	2.506174824497190E-02	1.232583826598240E-01	9.749382517550240E-01	-1.232583826598240E-01	9.749382517550240E-01	-1.232583826598240E-01	2.506174824497190E-02	1.232583826598240E-01
4.290421892388860E+08	2.699838328103130E-02	1.279268619093880E-01	9.730016167189720E-01	-1.279268619093880E-01	9.730016167189720E-01	-1.279268619093880E-01	2.699838328103130E-02	1.279268619093880E-01
4.466835921509640E+08	2.908410047417840E-02	1.327398720591100E-01	9.709158995258240E-01	-1.327398720591110E-01	9.709158995258240E-01	-1.327398720591110E-01	2.908410047417840E-02	1.327398720591100E-01
4.650503761666070E+08	3.132923817710040E-02	1.376978159572050E-01	9.686707618228970E-01	-1.376978159572040E-01	9.686707618228970E-01	-1.376978159572040E-01	3.132923817710040E-02	1.376978159572050E-01
4.841723675841000E+08	3.374466031931790E-02	1.428005250688020E-01	9.662553396806830E-01	-1.428005250688020E-01	9.662553396806830E-01	-1.428005250688020E-01	3.374466031931790E-02	1.428005250688020E-01
5.040806191026710E+08	3.634175074880110E-02	1.480471845636900E-01	9.636582492511970E-01	-1.480471845636900E-01	9.636582492511970E-01	-1.480471845636900E-01	3.634175074880110E-02	1.480471845636900E-01
5.248074602497740E+08	3.913240076411700E-02	1.534362531771920E-01	9.608675992358820E-01	-1.534362531771910E-01	9.608675992358820E-01	-1.534362531771910E-01	3.913240076411700E-02	1.534362531771920E-01
5.463865498818560E+08	4.212898869453110E-02	1.589653780871240E-01	9.578710113054680E-01	-1.589653780871240E-01	9.578710113054680E-01	-1.589653780871240E-01	4.212898869453110E-02	1.589653780871240E-01
5.688529308438430E+08	4.534435029920020E-02	1.646313052125850E-01	9.546556497007980E-01	-1.646313052125850E-01	9.546556497007980E-01	-1.646313052125850E-01	4.534435029920020E-02	1.646313052125850E-01
5.922430868761320E+08	4.879173868322000E-02	1.704297855334420E-01	9.512082613167840E-01	-1.704297855334430E-01	9.512082613167840E-01	-1.704297855334430E-01	4.879173868322000E-02	1.704297855334420E-01
6.165950018614850E+08	5.248477237425440E-02	1.763554782546070E-01	9.475152276257430E-01	-1.763554782546070E-01	9.475152276257430E-01	-1.763554782546070E-01	5.248477237425440E-02	1.763554782546070E-01
6.419482215080390E+08	5.643737017650750E-02	1.824018518975050E-01	9.435626298234920E-01	-1.824018518975050E-01	9.435626298234920E-01	-1.824018518975050E-01	5.643737017650750E-02	1.824018518975050E-01
6.683439175686170E+08	6.066367142753280E-02	1.885610846916470E-01	9.393363285724630E-01	-1.885610846916460E-01	9.393363285724630E-01	-1.885610846916460E-01	6.066367142753280E-02	1.885610846916470E-01
6.958249547006070E+08	6.517794033787820E-02	1.948239659603030E-01	9.348220596621230E-01	-1.948239659603030E-01	9.348220596621230E-01	-1.948239659603030E-01	6.517794033787820E-02	1.948239659603030E-01
7.244359600749910E+08	6.999445320442130E-02	2.011798005409400E-01	9.300055467955800E-01	-2.011798005409410E-01	9.300055467955800E-01	-2.011798005409410E-01	6.999445320442130E-02	2.011798005409400E-01
7.542233958475720E+08	7.512736746687980E-02	2.076163186467600E-01	9.248726325331220E-01	-2.076163186467600E-01	9.248726325331220E-01	-2.076163186467600E-01	7.512736746687980E-02	2.076163186467600E-01
7.852356346100750E+08	8.059057183456890E-02	2.141195939497440E-01	9.194094281654310E-01	-2.141195939497440E-01	9.194094281654310E-01	-2.141195939497440E-01	8.059057183456890E-02	2.141195939497440E-01
8.175230379436530E+08	8.639751705765780E-02	2.206739730344260E-01	9.136024829423380E-01	-2.206739730344250E-01	9.136024829423380E-01	-2.206739730344250E-01	8.639751705765780E-02	2.206739730344260E-01
8.511380382023790E+08	9.256102736290940E-02	2.272620197172450E-01	9.074389726370900E-01	-2.272620197172450E-01	9.074389726370900E-01	-2.272620197172450E-01	9.256102736290940E-02	2.272620197172450E-01
8.861352236595020E+08	9.909309312421790E-02	2.338644780269340E-01	9.009069068757800E-01	-2.338644780269340E-01	9.009069068757800E-01	-2.338644780269340E-01	9.909309312421790E-02	2.338644780269340E-01
9.225714271547670E+08	1.060046459954480E-01	2.404602578713050E-01	8.939953540045490E-01	-2.404602578713050E-01	8.939953540045490E-01	-2.404602578713050E-01	1.060046459954480E-01	2.404602578713050E-01
9.605058183867350E+08	1.133053184933610E-01	2.470264475456390E-01	8.866946815066350E-01	-2.470264475456380E-01	8.866946815066350E-01	-2.470264475456380E-01	1.133053184933610E-01	2.470264475456390E-01
1.000000000000000E+09	1.210031908713960E-01	2.535383572363860E-01	8.789968091286000E-01	-2.535383572363850E-01	8.789968091286000E-01	-2.535383572363850E-01	1.210031908713960E-01	2.535383572363860E-01
